24

1 23 12
2 20 16
3 19 1
4 23 11
5 19 1
6 2 1
7 18 16
8 12 11
9 23 15
10 14 5
11 5 11
12 15 11
13 14 8
14 6 7
15 5 13
16 21 11
17 1 16
18 13 11
19 18 16
20 6 10
21 4 15
22 15 12
23 11 19
24 21 11

194
